100 10
296 295
885 212
294 426
523 358
943 900
360 654
498 660
875 760
699 384
716 633
604 340
543 204
455 897
596 698
648 616
209 451
512 292
534 171
430 387
603 189
140 520
124 601
687 457
769 641
514 691
792 398
171 533
301 318
495 466
439 297
595 409
591 74
565 528
590 562
355 270
709 613
633 584
292 359
434 203
550 642
116 43
355 782
568 437
585 625
471 497
482 441
829 860
730 537
668 382
699 886
629 704
213 431
593 539
197 105
509 839
109 715
729 618
411 600
650 358
270 147
578 810
479 768
698 665
250 230
457 765
553 336
434 457
454 362
534 872
554 839
307 704
556 440
485 644
456 377
571 622
376 913
399 477
693 486
883 666
478 63
165 197
407 417
804 681
750 609
370 389
257 304
530 744
636 366
502 833
608 777
234 259
454 115
236 86
589 232
743 664
365 870
441 223
770 533
487 549
348 519
